&CONTROL
                   calculation    =    'relax'
                        prefix    =    'pwscf'
                         title    =    'Diamond'
                  restart_mode    =    'from_scratch'
                    pseudo_dir    =    '../../../pseudos/'
                     verbosity    =    'high'
                    wf_collect    =    .true.
                       disk_io    =    'none'
                 etot_conv_thr    =    1.0D-4
                 forc_conv_thr    =    3.889D-4
/

&SYSTEM
                         ibrav    =    0
                           nat    =    16
                          ntyp    =    1
                          nbnd    =    320
                       ecutwfc    =    70.0
                         nspin    =    1
                   occupations    =    'smearing'
                      smearing    =    'fermi-dirac'
                       degauss    =    1.D-3
/

&ELECTRONS
                      conv_thr    =    1.D-8
              electron_maxstep    =    300
               diagonalization    =    'david'
              diago_david_ndim    =    4
                diago_thr_init    =    1.D-3
/

&IONS
                  ion_dynamics    =    'bfgs'
/

ATOMIC_SPECIES
  C   12.011    C.pbe-mt_fhi.UPF

CELL_PARAMETERS (angstrom)
        0.0000000000         3.5700000000         3.5700000000
        3.5700000000         0.0000000000         3.5700000000
        3.5700000000         3.5700000000         0.0000000000

ATOMIC_POSITIONS (crystal)
C     0.000000000         0.000000000         0.000000000
C     0.000000000         0.000000000         0.500000000
C     0.000000000         0.500000000         0.000000000
C     0.000000000         0.500000000         0.500000000
C     0.500000000         0.000000000         0.000000000
C     0.500000000         0.000000000         0.500000000
C     0.500000000         0.500000000         0.000000000
C     0.500000000         0.500000000         0.500000000
C     0.125000000         0.125000000         0.125000000
C     0.125000000         0.125000000         0.625000000
C     0.125000000         0.625000000         0.125000000
C     0.125000000         0.625000000         0.625000000
C     0.625000000         0.125000000         0.125000000
C     0.625000000         0.125000000         0.625000000
C     0.625000000         0.625000000         0.125000000
C     0.625000000         0.625000000         0.625000000

K_POINTS automatic
  VAR_K  VAR_K  VAR_K   0  0  0
