&CONTROL
                   calculation    =    'scf'
                        prefix    =    'pwscf'
                         title    =    'Water'
                  restart_mode    =    'from_scratch'
                    pseudo_dir    =    '/Users/lseixas/Dropbox/QuantumESPRESSO/pseudos/'
                     verbosity    =    'high'
                    wf_collect    =    .true.
                       disk_io    =    'none'
                 etot_conv_thr    =    1.0D-4
                 forc_conv_thr    =    3.889D-4
/

&SYSTEM
                         ibrav    =    0
                           nat    =    3
                          ntyp    =    2
                          nbnd    =    10
                       ecutwfc    =    VAR_WFC
                         nspin    =    1
                   occupations    =    'smearing'
                      smearing    =    'fermi-dirac'
                       degauss    =    1.D-3
/

&ELECTRONS
                      conv_thr    =    1.D-8
              electron_maxstep    =    300
               diagonalization    =    'david'
              diago_david_ndim    =    4
                diago_thr_init    =    1.D-3
/

&IONS
                  ion_dynamics    =    'bfgs'
/

ATOMIC_SPECIES
  O   15.9994   O.pbe-n-kjpaw_psl.0.1.UPF
  H    1.008    H.pbe-kjpaw_psl.0.1.UPF

CELL_PARAMETERS (angstrom)
  10.000000000  0.000000000   0.000000000
   0.000000000 10.000000000   0.000000000
   0.000000000  0.000000000  10.000000000

ATOMIC_POSITIONS (crystal)
O        0.472585919   0.500000000   0.500000000
H        0.413707041   0.422652817   0.500000000
H        0.413707041   0.577347183   0.500000000

K_POINTS gamma
